p tw 177 191
1 2
2 90
3 14
4 5
5 6
6 7
7 8
7 20
8 9
9 10
10 11
11 12
11 17
12 13
13 15
14 25
15 16
16 17
16 20
17 18
18 19
19 22
20 21
21 22
22 23
23 24
24 26
25 36
26 174
27 28
28 29
29 30
30 31
31 32
32 33
33 34
34 35
35 37
36 47
37 38
38 39
39 40
39 49
40 41
41 42
42 43
43 44
43 52
44 45
45 46
46 48
47 58
48 49
48 52
49 50
50 51
51 54
52 53
53 54
54 55
55 56
56 57
57 59
58 69
59 60
60 61
61 62
62 63
63 64
64 65
65 66
66 67
66 76
67 68
68 70
69 80
70 71
71 72
72 73
73 74
74 75
75 61
76 77
77 78
78 79
79 81
80 88
80 92
81 82
82 83
83 84
84 85
85 86
86 87
88 89
89 91
90 101
91 58
92 93
93 94
94 95
95 96
96 97
97 98
97 102
98 99
99 100
100 95
101 112
102 103
103 104
104 105
105 106
106 107
107 108
108 109
109 110
110 111
111 113
112 123
113 114
114 115
115 116
116 117
117 118
118 119
119 120
120 121
121 122
122 124
123 134
124 125
125 126
126 127
127 128
128 129
129 130
130 131
131 132
132 133
133 135
134 145
135 136
136 137
137 138
138 139
138 141
139 140
140 141
141 142
142 143
143 144
144 146
145 156
146 147
147 148
148 149
148 161
149 150
150 151
151 152
152 153
152 158
153 154
154 155
155 157
156 167
157 158
157 161
158 159
159 160
160 163
161 162
162 163
163 164
164 165
165 166
166 168
167 3
168 169
168 172
169 170
170 171
171 143
172 173
173 174
174 175
175 176
176 177
176 27
177 4
